Reading model...
...model read.
creating competitive generators file...
...competitive generators recorded.
Loading data...
.. real-time data read.
Compiling instance...
...instance created.
Creating Offer Mitigation (model will solve as dispatch if TRUE)...
NOTE: storage offers will not be mitigated
...storage offer mitigation file created
Converting model to MPEC...
...converted
NOTE: initial MIP solve with only storage competitive to get feasible solution
Solving...

Welcome to IBM(R) ILOG(R) CPLEX(R) Interactive Optimizer 12.9.0.0
  with Simplex, Mixed Integer & Barrier Optimizers
5725-A06 5725-A29 5724-Y48 5724-Y49 5724-Y54 5724-Y55 5655-Y21
Copyright IBM Corp. 1988, 2019.  All Rights Reserved.

Type 'help' for a list of available commands.
Type 'help' followed by a command name for more
information on commands.

CPLEX> Logfile 'cplex.log' closed.
Logfile 'C:\Users\llavin\Desktop\test826\logs\tmpo1w715bm.cplex.log' open.
CPLEX> New value for parallel optimization mode: -1
CPLEX> New value for mixed integer optimality gap tolerance: 0.01
CPLEX> New value for emphasis for MIP optimization: 1
CPLEX> New value for integrality tolerance: 1e-12
CPLEX> New value for deterministic time limit in ticks: 150000
CPLEX> Problem 'C:\Users\llavin\Desktop\test826\logs\tmpdufnnbib.pyomo.lp' read.
Read time = 0.53 sec. (28.17 ticks)
CPLEX> Problem name         : C:\Users\llavin\Desktop\test826\logs\tmpdufnnbib.pyomo.lp
Objective sense      : Maximize
Variables            :  107795  [Nneg: 1,  Box: 44062,  Free: 8928,
                                 Binary: 54804]
Objective nonzeros   :   17427
Linear constraints   :  247027  [Less: 82874,  Greater: 118442,  Equal: 45711]
  Nonzeros           :  624881
  RHS nonzeros       :  134903

Variables            : Min LB: -5000.000        Max UB: 1000000.       
Objective nonzeros   : Min   : 0.001000000      Max   : 208.3333       
Linear constraints   :
  Nonzeros           : Min   : 0.01666667       Max   : 1000000.       
  RHS nonzeros       : Min   : 0.001000000      Max   : 1000000.       
CPLEX> CPXPARAM_Parallel                                -1
CPXPARAM_Emphasis_MIP                            1
CPXPARAM_DetTimeLimit                            150000
CPXPARAM_MIP_Tolerances_MIPGap                   0.01
CPXPARAM_MIP_Tolerances_Integrality              9.9999999999999998e-13
Tried aggregator 3 times.
MIP Presolve eliminated 182701 rows and 42304 columns.
MIP Presolve added 6000 rows and 0 columns.
MIP Presolve modified 49792 coefficients.
Aggregator did 25642 substitutions.
Reduced MIP has 44684 rows, 38217 columns, and 127399 nonzeros.
Reduced MIP has 14965 binaries, 0 generals, 0 SOSs, and 0 indicators.
Presolve time = 0.59 sec. (336.76 ticks)
Probing fixed 862 vars, tightened 14290 bounds.
Probing time = 0.38 sec. (17.39 ticks)
Tried aggregator 2 times.
MIP Presolve eliminated 1918 rows and 1726 columns.
MIP Presolve modified 5432 coefficients.
Aggregator did 133 substitutions.
Reduced MIP has 42633 rows, 36358 columns, and 121438 nonzeros.
Reduced MIP has 14102 binaries, 0 generals, 0 SOSs, and 0 indicators.
Presolve time = 0.22 sec. (203.88 ticks)
Probing fixed 1 vars, tightened 512 bounds.
Probing time = 0.42 sec. (17.89 ticks)
Clique table members: 76418.
MIP emphasis: integer feasibility.
MIP search method: dynamic search.
Parallel mode: opportunistic, using up to 32 threads.
Root relaxation solution time = 0.98 sec. (1834.61 ticks)

        Nodes                                         Cuts/
   Node  Left     Objective  IInf  Best Integer    Best Bound    ItCnt     Gap

      0     0        0.0000   737                      0.0000    10096         
*     0+    0                            0.0000        0.0000             0.00%
      0     0        cutoff              0.0000        0.0000    10096    0.00%
Elapsed time = 3.28 sec. (2995.44 ticks, tree = 0.01 MB, solutions = 1)

Root node processing (before b&c):
  Real time             =    3.31 sec. (2999.23 ticks)
Parallel b&c, 32 threads:
  Real time             =    0.00 sec. (0.00 ticks)
  Sync time (average)   =    0.00 sec.
  Wait time (average)   =    0.00 sec.
                          ------------
Total (root+branch&cut) =    3.31 sec. (2999.23 ticks)

Solution pool: 1 solution saved.

MIP - Integer optimal solution:  Objective =  1.0608573575e-08
Solution time =    3.34 sec.  Iterations = 10096  Nodes = 0
Deterministic time = 2999.53 ticks  (897.26 ticks/sec)

CPLEX> Incumbent solution written to file 'C:\Users\llavin\Desktop\test826\logs\tmp01hdt0mv.cplex.sol'.
CPLEX> NOTE: no warmstart specified for MIP iteration, default behavior is true
NOTE: resolving with all competitive generators using storage-only solution to warmstart
Solving...

Welcome to IBM(R) ILOG(R) CPLEX(R) Interactive Optimizer 12.9.0.0
  with Simplex, Mixed Integer & Barrier Optimizers
5725-A06 5725-A29 5724-Y48 5724-Y49 5724-Y54 5724-Y55 5655-Y21
Copyright IBM Corp. 1988, 2019.  All Rights Reserved.

Type 'help' for a list of available commands.
Type 'help' followed by a command name for more
information on commands.

CPLEX> Logfile 'cplex.log' closed.
Logfile 'C:\Users\llavin\Desktop\test826\logs\tmpjx3zowba.cplex.log' open.
CPLEX> New value for parallel optimization mode: -1
CPLEX> New value for mixed integer optimality gap tolerance: 0.01
CPLEX> New value for emphasis for MIP optimization: 1
CPLEX> New value for integrality tolerance: 1e-12
CPLEX> New value for deterministic time limit in ticks: 150000
CPLEX> Problem 'C:\Users\llavin\Desktop\test826\logs\tmpciri0ih_.pyomo.lp' read.
Read time = 0.53 sec. (28.22 ticks)
CPLEX> MIP start file 'C:\Users\llavin\Desktop\test826\logs\tmpjzlvvsa1.cplex.mst' read.
CPLEX> Problem name         : C:\Users\llavin\Desktop\test826\logs\tmpciri0ih_.pyomo.lp
Objective sense      : Maximize
Variables            :  109235  [Nneg: 1,  Box: 45502,  Free: 8928,
                                 Binary: 54804]
Objective nonzeros   :   18819
Linear constraints   :  247027  [Less: 82874,  Greater: 118442,  Equal: 45711]
  Nonzeros           :  624881
  RHS nonzeros       :  134903

Variables            : Min LB: -5000.000        Max UB: 1000000.       
Objective nonzeros   : Min   : 0.001000000      Max   : 208.3333       
Linear constraints   :
  Nonzeros           : Min   : 0.01666667       Max   : 1000000.       
  RHS nonzeros       : Min   : 0.001000000      Max   : 1000000.       
CPLEX> CPXPARAM_Parallel                                -1
CPXPARAM_Emphasis_MIP                            1
CPXPARAM_DetTimeLimit                            150000
CPXPARAM_MIP_Tolerances_MIPGap                   0.01
CPXPARAM_MIP_Tolerances_Integrality              9.9999999999999998e-13
Warning:  No solution found from 1 MIP starts.
Retaining values of one MIP start for possible repair.
Tried aggregator 3 times.
MIP Presolve eliminated 182701 rows and 43744 columns.
MIP Presolve added 6000 rows and 0 columns.
MIP Presolve modified 49792 coefficients.
Aggregator did 25642 substitutions.
Reduced MIP has 44684 rows, 38217 columns, and 127399 nonzeros.
Reduced MIP has 14965 binaries, 0 generals, 0 SOSs, and 0 indicators.
Presolve time = 0.59 sec. (337.47 ticks)
Probing fixed 862 vars, tightened 14290 bounds.
Probing time = 0.36 sec. (17.39 ticks)
Tried aggregator 2 times.
MIP Presolve eliminated 1918 rows and 1726 columns.
MIP Presolve modified 5432 coefficients.
Aggregator did 133 substitutions.
Reduced MIP has 42633 rows, 36358 columns, and 121438 nonzeros.
Reduced MIP has 14102 binaries, 0 generals, 0 SOSs, and 0 indicators.
Presolve time = 0.23 sec. (204.02 ticks)
Probing fixed 1 vars, tightened 512 bounds.
Probing time = 0.44 sec. (17.89 ticks)
Clique table members: 76418.
MIP emphasis: integer feasibility.
MIP search method: dynamic search.
Parallel mode: opportunistic, using up to 32 threads.
Root relaxation solution time = 1.08 sec. (1935.89 ticks)

        Nodes                                         Cuts/
   Node  Left     Objective  IInf  Best Integer    Best Bound    ItCnt     Gap

      0     0    32172.3805  1029                  32172.3805    11640         
      0     0    32171.1319   148               Flowcuts: 191    11758         
      0     0    32170.5110   150                   Cuts: 137    11822         
      0     0    32170.5110   150                    Cuts: 54    11834         
Repair heuristic found nothing.
      0    16    32163.5762   146                   Covers: 1    11870         
Elapsed time = 7.38 sec. (4396.22 ticks, tree = 0.02 MB, solutions = 0)
    607    67    32146.1624   138                  32166.3395    12005         
   1371   323    32146.7837   115                  32166.3395    12534         
   2095  1142    32142.0307    94                  32166.3395    13993         
   2450  2011    32139.2569    85                  32166.3395    18119         
   2741  2123    32127.2057    81                  32166.3395    18973         
   3083  2863    26710.3381    92                  32166.3395    31815         
   3493  2804    32108.1314    57                  32166.3395    30463         
   3881  3638    32087.8896    48                  32166.3395    39222         
   4342  3345    32099.4079    54                  32166.3395    36732         
*  5990  5108      integral     0    32025.3246    32166.3395    49045    0.44%
   6115  4747    32057.0178     6    32025.3246    32166.3395    46359    0.44%
Elapsed time = 25.50 sec. (7502.98 ticks, tree = 61.22 MB, solutions = 10)

Clique cuts applied:  2
Cover cuts applied:  1
Implied bound cuts applied:  4
Flow cuts applied:  221
Mixed integer rounding cuts applied:  1

Root node processing (before b&c):
  Real time             =    5.53 sec. (4371.78 ticks)
Parallel b&c, 32 threads:
  Real time             =   20.67 sec. (3485.96 ticks)
  Sync time (average)   =    0.68 sec.
  Wait time (average)   =    0.00 sec.
                          ------------
Total (root+branch&cut) =   26.20 sec. (7857.74 ticks)

Solution pool: 11 solutions saved.

MIP - Integer optimal, tolerance (0.01/1e-06):  Objective =  3.2025324576e+04
Current MIP best bound =  3.2166339471e+04 (gap = 141.015, 0.44%)
Solution time =   26.22 sec.  Iterations = 60914  Nodes = 6273 (5198)
Deterministic time = 7858.06 ticks  (299.71 ticks/sec)

CPLEX> Incumbent solution written to file 'C:\Users\llavin\Desktop\test826\logs\tmphi8hscgj.cplex.sol'.
CPLEX> Exporting results... 
